p tw 30 124
e 0 3
e 0 4
e 0 12
e 0 20
e 0 21
e 0 22
e 0 29
e 1 2
e 1 4
e 1 8
e 1 18
e 2 8
e 2 11
e 2 13
e 2 23
e 2 27
e 3 5
e 3 7
e 3 9
e 3 10
e 3 12
e 3 15
e 3 16
e 3 20
e 3 22
e 3 24
e 3 26
e 3 28
e 3 29
e 4 6
e 4 7
e 4 10
e 4 12
e 4 13
e 4 17
e 4 19
e 4 28
e 5 7
e 5 10
e 5 14
e 5 16
e 5 19
e 5 21
e 5 22
e 5 23
e 5 24
e 5 25
e 6 8
e 6 10
e 6 15
e 6 18
e 6 19
e 6 21
e 6 23
e 6 24
e 6 25
e 6 26
e 6 27
e 7 10
e 7 17
e 7 20
e 7 21
e 7 27
e 8 9
e 8 11
e 8 15
e 8 19
e 8 21
e 8 22
e 8 25
e 8 27
e 9 13
e 9 14
e 9 15
e 9 20
e 9 28
e 10 16
e 10 17
e 10 19
e 10 25
e 10 28
e 11 12
e 11 13
e 11 17
e 11 18
e 11 19
e 11 24
e 11 28
e 12 14
e 12 22
e 12 24
e 12 27
e 13 25
e 14 16
e 14 22
e 14 28
e 15 17
e 15 20
e 15 22
e 15 25
e 15 28
e 16 17
e 16 18
e 16 26
e 16 28
e 16 29
e 17 19
e 17 26
e 17 27
e 18 19
e 18 20
e 19 23
e 20 22
e 21 22
e 21 24
e 21 25
e 21 27
e 22 25
e 22 27
e 22 29
e 24 25
e 24 26
e 24 27
e 25 28
